p cnf 20 72
-1 -3 -4 -5 0
1 -6 -8 -9 0
-10 -12 -13 0
3 14 0
8 12 -19 0
-1 2 0
-1 -6 0
1 7 -3 0
-1 -7 3 0
-1 -8 0
1 9 -4 0
-1 -9 4 0
-1 5 0
-2 -10 0
2 11 -3 0
-2 -11 3 0
-2 -12 0
2 13 -4 0
-2 -13 4 0
-2 5 0
14 -3 0
15 -5 0
-3 -16 0
3 17 -4 0
-3 -17 4 0
3 18 -5 0
-3 -18 5 0
19 -5 0
4 20 -5 0
-4 -20 5 0
-10 6 0
-11 7 0
-12 8 0
-13 9 0
6 14 -7 0
-6 -14 7 0
6 -8 0
-6 9 0
6 15 0
7 16 -8 0
-7 -16 8 0
7 17 -9 0
-7 -17 9 0
7 18 0
-8 9 0
8 19 0
9 20 0
10 14 -11 0
-10 -14 11 0
10 -12 0
-10 13 0
10 15 0
11 16 -12 0
-11 -16 12 0
11 17 -13 0
-11 -17 13 0
11 18 0
-12 13 0
12 19 0
13 20 0
-14 -16 0
14 17 0
14 18 -15 0
-14 -18 15 0
19 -15 0
-20 15 0
-16 17 0
16 19 -18 0
-16 -19 18 0
17 20 -18 0
-17 -20 18 0
-20 19 0
